p cnf 59 156
1 -35 0
1 -36 0
35 -35 0
36 -36 0
18 -37 0
18 -38 0
37 -37 0
38 -38 0
2 -35 0
2 -36 0
35 -35 0
36 -36 0
19 -37 0
19 -38 0
37 -37 0
38 -38 0
3 -35 0
3 -36 0
35 -35 0
36 -36 0
20 -37 0
20 -38 0
37 -37 0
38 -38 0
4 -35 0
4 -36 0
35 -35 0
36 -36 0
21 -37 0
21 -38 0
37 -37 0
38 -38 0
5 -35 0
5 -36 0
35 -35 0
36 -36 0
22 -37 0
22 -38 0
37 -37 0
38 -38 0
6 -39 -35 0
-6 39 -35 0
6 39 -36 0
-6 -39 -36 0
23 -39 -37 0
-23 39 -37 0
23 39 -38 0
-23 -39 -38 0
7 -40 -35 0
-7 40 -35 0
7 40 -36 0
-7 -40 -36 0
24 -40 -37 0
-24 40 -37 0
24 40 -38 0
-24 -40 -38 0
8 -35 0
8 -36 0
35 -35 0
36 -36 0
25 -37 0
25 -38 0
37 -37 0
38 -38 0
9 -35 0
9 -36 0
35 -35 0
36 -36 0
26 -37 0
26 -38 0
37 -37 0
38 -38 0
10 -35 0
10 -36 0
35 -35 0
36 -36 0
27 -37 0
27 -38 0
37 -37 0
38 -38 0
11 -35 0
11 -36 0
35 -35 0
36 -36 0
28 -37 0
28 -38 0
37 -37 0
38 -38 0
12 -35 0
12 -36 0
35 -35 0
36 -36 0
29 -37 0
29 -38 0
37 -37 0
38 -38 0
-13 -35 0
-13 -36 0
35 -35 0
36 -36 0
-30 -37 0
-30 -38 0
37 -37 0
38 -38 0
14 -35 0
14 -36 0
35 -35 0
36 -36 0
31 -37 0
31 -38 0
37 -37 0
38 -38 0
15 -35 0
15 -36 0
35 -35 0
36 -36 0
32 -37 0
32 -38 0
37 -37 0
38 -38 0
-16 -35 0
-16 -36 0
35 -35 0
36 -36 0
-33 -37 0
-33 -38 0
37 -37 0
38 -38 0
-17 -35 0
-17 -36 0
35 -35 0
36 -36 0
-34 -37 0
-34 -38 0
37 -37 0
38 -38 0
-56 35 0
56 -35 0
-57 36 0
56 -36 0
-56 -35 0
-57 -36 0
-58 35 56 0
58 -35 0
58 -56 0
-59 36 57 0
59 -36 0
59 -57 0
-58 -37 0
-59 -38 0
58 0
59 0
-35 38 0
-36 0
-37 0
-38 35 0
